objective value:                                12315
t_x_2                                               1 	(obj:7)
t_x_4                                               1 	(obj:19)
t_x_5                                               1 	(obj:33)
t_x_6                                               1 	(obj:24)
t_x_7                                               1 	(obj:3)
t_x_8                                               1 	(obj:35)
t_x_9                                               1 	(obj:6)
t_x_13                                              1 	(obj:18)
t_x_15                                              1 	(obj:7)
t_x_27                                              1 	(obj:69)
t_x_28                                              1 	(obj:42)
t_x_30                                              1 	(obj:19)
t_x_31                                              1 	(obj:47)
t_x_34                                              1 	(obj:12)
t_x_35                                              1 	(obj:33)
t_x_37                                              1 	(obj:49)
t_x_42                                              1 	(obj:1)
t_x_45                                              1 	(obj:42)
t_x_48                                              1 	(obj:44)
t_x_52                                              1 	(obj:6)
t_x_53                                              1 	(obj:0)
t_x_56                                              1 	(obj:3)
t_x_58                                              1 	(obj:7)
t_x_59                                              1 	(obj:15)
t_x_61                                              1 	(obj:19)
t_x_63                                              1 	(obj:43)
t_x_65                                              1 	(obj:64)
t_x_66                                              1 	(obj:21)
t_x_72                                              1 	(obj:44)
t_x_74                                              1 	(obj:10)
t_x_77                                              1 	(obj:1)
t_x_79                                              1 	(obj:19)
t_x_81                                              1 	(obj:23)
t_x_83                                              1 	(obj:7)
t_x_84                                              1 	(obj:19)
t_x_86                                              1 	(obj:1)
t_x_87                                              1 	(obj:9)
t_x_88                                              1 	(obj:18)
t_x_92                                              1 	(obj:11)
t_x_93                                              1 	(obj:31)
t_x_94                                              1 	(obj:0)
t_x_108                                             1 	(obj:4)
t_x_114                                             1 	(obj:17)
t_x_133                                             1 	(obj:8)
t_x_137                                             1 	(obj:32)
t_x_138                                             1 	(obj:27)
t_x_143                                             1 	(obj:14)
t_x_147                                             1 	(obj:3)
t_x_148                                             1 	(obj:18)
t_x_158                                             1 	(obj:16)
t_x_163                                             1 	(obj:11)
t_x_165                                             1 	(obj:5)
t_x_170                                             1 	(obj:18)
t_x_173                                             1 	(obj:4)
t_x_174                                             1 	(obj:20)
t_x_177                                             1 	(obj:3)
t_x_178                                             1 	(obj:44)
t_x_180                                             1 	(obj:10)
t_x_181                                             1 	(obj:27)
t_x_183                                             1 	(obj:5)
t_x_185                                             1 	(obj:41)
t_x_196                                             1 	(obj:19)
t_x_197                                             1 	(obj:8)
t_x_206                                             1 	(obj:6)
t_x_211                                             1 	(obj:1)
t_x_215                                             1 	(obj:11)
t_x_221                                             1 	(obj:3)
t_x_222                                             1 	(obj:17)
t_x_223                                             1 	(obj:33)
t_x_232                                             1 	(obj:33)
t_x_233                                             1 	(obj:6)
t_x_235                                             1 	(obj:10)
t_x_239                                             1 	(obj:0)
t_x_244                                             1 	(obj:17)
t_x_245                                             1 	(obj:27)
t_x_248                                             1 	(obj:29)
t_x_251                                             1 	(obj:23)
t_x_253                                             1 	(obj:19)
t_x_254                                             1 	(obj:31)
t_x_260                                             1 	(obj:17)
t_x_261                                             1 	(obj:13)
t_x_263                                             1 	(obj:19)
t_x_268                                             1 	(obj:32)
t_x_269                                             1 	(obj:9)
t_x_270                                             1 	(obj:56)
t_x_271                                             1 	(obj:0)
t_x_275                                             1 	(obj:10)
t_x_286                                             1 	(obj:1)
t_x_287                                             1 	(obj:2)
t_x_288                                             1 	(obj:4)
t_x_290                                             1 	(obj:2)
t_x_291                                             1 	(obj:4)
t_x_295                                             1 	(obj:32)
t_x_305                                             1 	(obj:40)
t_x_306                                             1 	(obj:7)
t_x_307                                             1 	(obj:0)
t_x_308                                             1 	(obj:20)
t_x_310                                             1 	(obj:2)
t_x_312                                             1 	(obj:46)
t_x_313                                             1 	(obj:31)
t_x_314                                             1 	(obj:27)
t_x_316                                             1 	(obj:54)
t_x_321                                             1 	(obj:15)
t_x_322                                             1 	(obj:12)
t_x_323                                             1 	(obj:11)
t_x_328                                             1 	(obj:18)
t_x_329                                             1 	(obj:7)
t_x_332                                             1 	(obj:11)
t_x_333                                             1 	(obj:10)
t_x_336                                             1 	(obj:1)
t_x_337                                             1 	(obj:32)
t_x_345                                             1 	(obj:29)
t_x_346                                             1 	(obj:17)
t_x_348                                             1 	(obj:6)
t_x_358                                             1 	(obj:13)
t_x_362                                             1 	(obj:5)
t_x_366                                             1 	(obj:1)
t_x_367                                             1 	(obj:15)
t_x_368                                             1 	(obj:18)
t_x_373                                             1 	(obj:37)
t_x_380                                             1 	(obj:47)
t_x_381                                             1 	(obj:24)
t_x_382                                             1 	(obj:10)
t_x_386                                             1 	(obj:8)
t_x_393                                             1 	(obj:29)
t_x_399                                             1 	(obj:3)
t_x_401                                             1 	(obj:19)
t_x_402                                             1 	(obj:1)
t_x_405                                             1 	(obj:9)
t_x_406                                             1 	(obj:12)
t_x_407                                             1 	(obj:56)
t_x_408                                             1 	(obj:4)
t_x_410                                             1 	(obj:5)
t_x_413                                             1 	(obj:0)
t_x_414                                             1 	(obj:10)
t_x_415                                             1 	(obj:23)
t_x_416                                             1 	(obj:2)
t_x_418                                             1 	(obj:4)
t_x_420                                             1 	(obj:1)
t_x_422                                             1 	(obj:8)
t_x_426                                             1 	(obj:27)
t_x_427                                             1 	(obj:35)
t_x_430                                             1 	(obj:8)
t_x_432                                             1 	(obj:11)
t_x_435                                             1 	(obj:4)
t_x_439                                             1 	(obj:0)
t_x_443                                             1 	(obj:51)
t_x_445                                             1 	(obj:42)
t_x_446                                             1 	(obj:15)
t_x_451                                             1 	(obj:5)
t_x_452                                             1 	(obj:20)
t_x_456                                             1 	(obj:14)
t_x_459                                             1 	(obj:3)
t_x_467                                             1 	(obj:23)
t_x_469                                             1 	(obj:1)
t_x_475                                             1 	(obj:19)
t_x_476                                             1 	(obj:17)
t_x_478                                             1 	(obj:5)
t_x_489                                             1 	(obj:29)
t_x_492                                             1 	(obj:1)
t_x_493                                             1 	(obj:26)
t_x_500                                             1 	(obj:8)
t_x_502                                             1 	(obj:14)
t_x_505                                             1 	(obj:23)
t_x_506                                             1 	(obj:2)
t_x_508                                             1 	(obj:10)
t_x_516                                             1 	(obj:16)
t_x_517                                             1 	(obj:6)
t_x_520                                             1 	(obj:31)
t_x_522                                             1 	(obj:2)
t_x_531                                             1 	(obj:53)
t_x_534                                             1 	(obj:39)
t_x_535                                             1 	(obj:31)
t_x_537                                             1 	(obj:27)
t_x_540                                             1 	(obj:18)
t_x_542                                             1 	(obj:5)
t_x_546                                             1 	(obj:7)
t_x_551                                             1 	(obj:40)
t_x_560                                             1 	(obj:35)
t_x_564                                             1 	(obj:26)
t_x_565                                             1 	(obj:1)
t_x_566                                             1 	(obj:46)
t_x_573                                             1 	(obj:51)
t_x_574                                             1 	(obj:7)
t_x_575                                             1 	(obj:8)
t_x_577                                             1 	(obj:9)
t_x_581                                             1 	(obj:30)
t_x_582                                             1 	(obj:9)
t_x_584                                             1 	(obj:0)
t_x_586                                             1 	(obj:28)
t_x_588                                             1 	(obj:22)
t_x_595                                             1 	(obj:16)
t_x_601                                             1 	(obj:5)
t_x_604                                             1 	(obj:49)
t_x_605                                             1 	(obj:12)
t_x_606                                             1 	(obj:1)
t_x_609                                             1 	(obj:29)
t_x_614                                             1 	(obj:7)
t_x_616                                             1 	(obj:30)
t_x_618                                             1 	(obj:20)
t_x_619                                             1 	(obj:37)
t_x_621                                             1 	(obj:14)
t_x_625                                             1 	(obj:75)
t_x_629                                             1 	(obj:24)
t_x_632                                             1 	(obj:28)
t_x_635                                             1 	(obj:60)
t_x_636                                             1 	(obj:17)
t_x_637                                             1 	(obj:22)
t_x_639                                             1 	(obj:27)
t_x_640                                             1 	(obj:35)
t_x_642                                             1 	(obj:38)
t_x_643                                             1 	(obj:14)
t_x_648                                             1 	(obj:15)
t_x_649                                             1 	(obj:3)
t_x_650                                             1 	(obj:19)
t_x_652                                             1 	(obj:2)
t_x_655                                             1 	(obj:20)
t_x_656                                             1 	(obj:43)
t_x_658                                             1 	(obj:7)
t_x_663                                             1 	(obj:11)
t_x_665                                             1 	(obj:45)
t_x_666                                             1 	(obj:34)
t_x_668                                             1 	(obj:29)
t_x_674                                             1 	(obj:0)
t_x_677                                             1 	(obj:32)
t_x_678                                             1 	(obj:35)
t_x_681                                             1 	(obj:7)
t_x_684                                             1 	(obj:70)
t_x_685                                             1 	(obj:8)
t_x_687                                             1 	(obj:5)
t_x_691                                             1 	(obj:14)
t_x_693                                             1 	(obj:32)
t_x_699                                             1 	(obj:25)
t_x_702                                             1 	(obj:3)
t_x_708                                             1 	(obj:30)
t_x_709                                             1 	(obj:0)
t_x_713                                             1 	(obj:10)
t_x_714                                             1 	(obj:32)
t_x_716                                             1 	(obj:4)
t_x_718                                             1 	(obj:1)
t_x_721                                             1 	(obj:25)
t_x_722                                             1 	(obj:24)
t_x_728                                             1 	(obj:9)
t_x_733                                             1 	(obj:12)
t_x_734                                             1 	(obj:18)
t_x_736                                             1 	(obj:12)
t_x_737                                             1 	(obj:16)
t_x_740                                             1 	(obj:9)
t_x_741                                             1 	(obj:21)
t_x_746                                             1 	(obj:9)
t_x_748                                             1 	(obj:37)
t_x_751                                             1 	(obj:3)
t_x_752                                             1 	(obj:10)
t_x_755                                             1 	(obj:46)
t_x_763                                             1 	(obj:13)
t_x_765                                             1 	(obj:28)
t_x_769                                             1 	(obj:0)
t_x_770                                             1 	(obj:43)
t_x_772                                             1 	(obj:28)
t_x_780                                             1 	(obj:28)
t_x_781                                             1 	(obj:0)
t_x_783                                             1 	(obj:21)
t_x_786                                             1 	(obj:44)
t_x_792                                             1 	(obj:33)
t_x_798                                             1 	(obj:28)
t_x_800                                             1 	(obj:0)
t_x_801                                             1 	(obj:90)
t_x_802                                             1 	(obj:7)
t_x_805                                             1 	(obj:13)
t_x_806                                             1 	(obj:6)
t_x_809                                             1 	(obj:13)
t_x_812                                             1 	(obj:2)
t_x_815                                             1 	(obj:42)
t_x_818                                             1 	(obj:10)
t_x_820                                             1 	(obj:18)
t_x_821                                             1 	(obj:44)
t_x_824                                             1 	(obj:24)
t_x_826                                             1 	(obj:22)
t_x_829                                             1 	(obj:6)
t_x_830                                             1 	(obj:33)
t_x_836                                             1 	(obj:43)
t_x_839                                             1 	(obj:5)
t_x_840                                             1 	(obj:28)
t_x_841                                             1 	(obj:17)
t_x_842                                             1 	(obj:12)
t_x_843                                             1 	(obj:4)
t_x_844                                             1 	(obj:33)
t_x_846                                             1 	(obj:43)
t_x_847                                             1 	(obj:5)
t_x_853                                             1 	(obj:22)
t_x_857                                             1 	(obj:11)
t_x_858                                             1 	(obj:40)
t_x_864                                             1 	(obj:2)
t_x_865                                             1 	(obj:23)
t_x_868                                             1 	(obj:16)
t_x_869                                             1 	(obj:22)
t_x_880                                             1 	(obj:22)
t_x_883                                             1 	(obj:23)
t_x_903                                             1 	(obj:44)
t_x_906                                             1 	(obj:10)
t_x_913                                             1 	(obj:36)
t_x_916                                             1 	(obj:59)
t_x_919                                             1 	(obj:7)
t_x_922                                             1 	(obj:1)
t_x_930                                             1 	(obj:6)
t_x_931                                             1 	(obj:7)
t_x_934                                             1 	(obj:20)
t_x_948                                             1 	(obj:8)
t_x_951                                             1 	(obj:16)
t_x_952                                             1 	(obj:11)
t_x_953                                             1 	(obj:3)
t_x_955                                             1 	(obj:0)
t_x_956                                             1 	(obj:16)
t_x_960                                             1 	(obj:14)
t_x_964                                             1 	(obj:20)
t_x_966                                             1 	(obj:30)
t_x_967                                             1 	(obj:18)
t_x_975                                             1 	(obj:28)
t_x_976                                             1 	(obj:24)
t_x_980                                             1 	(obj:25)
t_x_986                                             1 	(obj:52)
t_x_987                                             1 	(obj:21)
t_x_988                                             1 	(obj:10)
t_x_993                                             1 	(obj:21)
t_x_995                                             1 	(obj:16)
t_x_996                                             1 	(obj:37)
t_x_1003                                            1 	(obj:20)
t_x_1007                                            1 	(obj:22)
t_x_1009                                            1 	(obj:61)
t_x_1010                                            1 	(obj:31)
t_x_1011                                            1 	(obj:12)
t_x_1012                                            1 	(obj:8)
t_x_1023                                            1 	(obj:27)
t_x_1026                                            1 	(obj:13)
t_x_1029                                            1 	(obj:11)
t_x_1030                                            1 	(obj:16)
t_x_1035                                            1 	(obj:14)
t_x_1043                                            1 	(obj:17)
t_x_1044                                            1 	(obj:37)
t_x_1048                                            1 	(obj:44)
t_x_1049                                            1 	(obj:6)
t_x_1053                                            1 	(obj:28)
t_x_1057                                            1 	(obj:17)
t_x_1060                                            1 	(obj:10)
t_x_1061                                            1 	(obj:21)
t_x_1063                                            1 	(obj:33)
t_x_1064                                            1 	(obj:48)
t_x_1067                                            1 	(obj:57)
t_x_1071                                            1 	(obj:7)
t_x_1072                                            1 	(obj:2)
t_x_1073                                            1 	(obj:18)
t_x_1080                                            1 	(obj:13)
t_x_1084                                            1 	(obj:5)
t_x_1091                                            1 	(obj:4)
t_x_1094                                            1 	(obj:27)
t_x_1103                                            1 	(obj:11)
t_x_1105                                            1 	(obj:24)
t_x_1106                                            1 	(obj:16)
t_x_1117                                            1 	(obj:0)
t_x_1119                                            1 	(obj:36)
t_x_1127                                            1 	(obj:1)
t_x_1128                                            1 	(obj:33)
t_x_1133                                            1 	(obj:35)
t_x_1139                                            1 	(obj:14)
t_x_1150                                            1 	(obj:50)
t_x_1164                                            1 	(obj:43)
t_x_1166                                            1 	(obj:30)
t_x_1171                                            1 	(obj:3)
t_x_1172                                            1 	(obj:2)
t_x_1176                                            1 	(obj:13)
t_x_1179                                            1 	(obj:45)
t_x_1180                                            1 	(obj:3)
t_x_1181                                            1 	(obj:10)
t_x_1182                                            1 	(obj:27)
t_x_1186                                            1 	(obj:39)
t_x_1187                                            1 	(obj:34)
t_x_1188                                            1 	(obj:19)
t_x_1190                                            1 	(obj:3)
t_x_1195                                            1 	(obj:55)
t_x_1203                                            1 	(obj:3)
t_x_1206                                            1 	(obj:11)
t_x_1207                                            1 	(obj:7)
t_x_1208                                            1 	(obj:20)
t_x_1209                                            1 	(obj:49)
t_x_1210                                            1 	(obj:16)
t_x_1215                                            1 	(obj:9)
t_x_1226                                            1 	(obj:13)
t_x_1240                                            1 	(obj:36)
t_x_1243                                            1 	(obj:38)
t_x_1246                                            1 	(obj:0)
t_x_1247                                            1 	(obj:65)
t_x_1260                                            1 	(obj:1)
t_x_1262                                            1 	(obj:10)
t_x_1264                                            1 	(obj:15)
t_x_1269                                            1 	(obj:9)
t_x_1270                                            1 	(obj:71)
t_x_1279                                            1 	(obj:34)
t_x_1280                                            1 	(obj:49)
t_x_1281                                            1 	(obj:34)
t_x_1283                                            1 	(obj:11)
t_x_1292                                            1 	(obj:25)
t_x_1293                                            1 	(obj:7)
t_x_1297                                            1 	(obj:3)
t_x_1306                                            1 	(obj:26)
t_x_1307                                            1 	(obj:21)
t_x_1312                                            1 	(obj:11)
t_x_1313                                            1 	(obj:24)
t_x_1314                                            1 	(obj:17)
t_x_1318                                            1 	(obj:34)
t_x_1324                                            1 	(obj:40)
t_x_1326                                            1 	(obj:38)
t_x_1329                                            1 	(obj:13)
t_x_1330                                            1 	(obj:43)
t_x_1332                                            1 	(obj:16)
t_x_1335                                            1 	(obj:7)
t_x_1336                                            1 	(obj:17)
t_x_1338                                            1 	(obj:12)
t_x_1339                                            1 	(obj:43)
t_x_1344                                            1 	(obj:3)
t_x_1348                                            1 	(obj:20)
t_x_1350                                            1 	(obj:29)
t_x_1352                                            1 	(obj:12)
t_x_1355                                            1 	(obj:50)
t_x_1358                                            1 	(obj:21)
t_x_1359                                            1 	(obj:1)
t_x_1360                                            1 	(obj:30)
t_x_1365                                            1 	(obj:12)
t_x_1366                                            1 	(obj:3)
t_x_1368                                            1 	(obj:10)
t_x_1369                                            1 	(obj:3)
t_x_1385                                            1 	(obj:46)
t_x_1387                                            1 	(obj:22)
t_x_1392                                            1 	(obj:19)
t_x_1393                                            1 	(obj:10)
t_x_1395                                            1 	(obj:29)
t_x_1396                                            1 	(obj:28)
t_x_1398                                            1 	(obj:25)
t_x_1399                                            1 	(obj:24)
t_x_1400                                            1 	(obj:22)
t_x_1403                                            1 	(obj:10)
t_x_1408                                            1 	(obj:8)
t_x_1414                                            1 	(obj:9)
t_x_1416                                            1 	(obj:16)
t_x_1420                                            1 	(obj:10)
t_x_1421                                            1 	(obj:12)
t_x_1424                                            1 	(obj:5)
t_x_1438                                            1 	(obj:4)
t_x_1439                                            1 	(obj:18)
t_x_1449                                            1 	(obj:4)
t_x_1464                                            1 	(obj:21)
t_x_1466                                            1 	(obj:8)
t_x_1467                                            1 	(obj:37)
t_x_1472                                            1 	(obj:21)
t_x_1476                                            1 	(obj:11)
t_x_1480                                            1 	(obj:31)
t_x_1481                                            1 	(obj:6)
t_x_1483                                            1 	(obj:9)
t_x_1484                                            1 	(obj:50)
t_x_1485                                            1 	(obj:2)
t_x_1487                                            1 	(obj:14)
t_x_1489                                            1 	(obj:7)
t_x_1490                                            1 	(obj:15)
t_x_1491                                            1 	(obj:16)
t_x_1500                                            1 	(obj:58)
t_x_1503                                            1 	(obj:24)
t_x_1512                                            1 	(obj:22)
t_x_1513                                            1 	(obj:32)
t_x_1515                                            1 	(obj:18)
t_x_1519                                            1 	(obj:41)
t_x_1526                                            1 	(obj:6)
t_x_1529                                            1 	(obj:12)
t_x_1535                                            1 	(obj:17)
t_x_1538                                            1 	(obj:17)
t_x_1541                                            1 	(obj:25)
t_x_1542                                            1 	(obj:28)
t_x_1543                                            1 	(obj:0)
t_x_1544                                            1 	(obj:14)
t_x_1546                                            1 	(obj:26)
t_x_1548                                            1 	(obj:21)
t_x_1554                                            1 	(obj:41)
t_x_1555                                            1 	(obj:22)
t_x_1557                                            1 	(obj:12)
t_x_1559                                            1 	(obj:14)
t_x_1560                                            1 	(obj:30)
t_x_1561                                            1 	(obj:38)
t_x_1564                                            1 	(obj:12)
t_x_1565                                            1 	(obj:6)
t_x_1566                                            1 	(obj:9)
t_x_1574                                            1 	(obj:6)
t_x_1576                                            1 	(obj:26)
t_x_1580                                            1 	(obj:16)
t_x_1583                                            1 	(obj:24)
t_x_1584                                            1 	(obj:32)
t_x_1586                                            1 	(obj:10)
t_x_1589                                            1 	(obj:23)
t_x_1591                                            1 	(obj:29)
t_x_1592                                            1 	(obj:7)
t_x_1599                                            1 	(obj:34)
t_x_1603                                            1 	(obj:20)
t_x_1605                                            1 	(obj:4)
t_x_1608                                            1 	(obj:55)
t_x_1611                                            1 	(obj:31)
t_x_1614                                            1 	(obj:1)
t_x_1617                                            1 	(obj:14)
t_x_1618                                            1 	(obj:41)
t_x_1621                                            1 	(obj:33)
t_x_1625                                            1 	(obj:8)
t_x_1627                                            1 	(obj:37)
t_x_1630                                            1 	(obj:41)
t_x_1633                                            1 	(obj:29)
t_x_1635                                            1 	(obj:26)
t_x_1636                                            1 	(obj:18)
t_x_1647                                            1 	(obj:51)
t_x_1648                                            1 	(obj:31)
t_x_1651                                            1 	(obj:31)
t_x_1653                                            1 	(obj:2)
t_x_1655                                            1 	(obj:23)
t_x_1656                                            1 	(obj:1)
t_x_1657                                            1 	(obj:7)
t_x_1658                                            1 	(obj:8)
t_x_1662                                            1 	(obj:19)
t_x_1664                                            1 	(obj:22)
t_x_1666                                            1 	(obj:12)
t_x_1669                                            1 	(obj:15)
t_x_1674                                            1 	(obj:5)
t_x_1676                                            1 	(obj:4)
t_x_1680                                            1 	(obj:15)
t_x_1681                                            1 	(obj:66)
t_x_1683                                            1 	(obj:23)
t_x_1688                                            1 	(obj:13)
t_x_1691                                            1 	(obj:38)
t_x_1692                                            1 	(obj:11)
t_x_1693                                            1 	(obj:46)
t_x_1699                                            1 	(obj:33)
t_x_1703                                            1 	(obj:7)
t_x_1704                                            1 	(obj:6)
t_x_1709                                            1 	(obj:0)
t_x_1711                                            1 	(obj:20)
t_x_1717                                            1 	(obj:27)
t_x_1723                                            1 	(obj:7)
t_x_1729                                            1 	(obj:20)
t_x_1730                                            1 	(obj:0)
t_x_1732                                            1 	(obj:19)
t_x_1733                                            1 	(obj:14)
t_x_1737                                            1 	(obj:29)
t_x_1740                                            1 	(obj:11)
t_x_1743                                            1 	(obj:35)
t_x_1745                                            1 	(obj:7)
t_x_1750                                            1 	(obj:9)
t_x_1756                                            1 	(obj:1)
t_x_1760                                            1 	(obj:27)
t_x_1762                                            1 	(obj:9)
t_x_1763                                            1 	(obj:9)
t_x_1768                                            1 	(obj:6)
t_x_1769                                            1 	(obj:26)
t_x_1771                                            1 	(obj:3)
t_x_1773                                            1 	(obj:17)
t_x_1774                                            1 	(obj:13)
t_x_1779                                            1 	(obj:5)
t_x_1781                                            1 	(obj:7)
t_x_1784                                            1 	(obj:57)
t_x_1785                                            1 	(obj:1)
t_x_1791                                            1 	(obj:42)
t_x_1793                                            1 	(obj:21)
t_x_1796                                            1 	(obj:1)
t_x_1803                                            1 	(obj:21)
t_x_1806                                            1 	(obj:12)
t_x_1808                                            1 	(obj:53)
t_x_1811                                            1 	(obj:11)
t_x_1815                                            1 	(obj:26)
t_x_1821                                            1 	(obj:8)
t_x_1822                                            1 	(obj:28)
t_x_1832                                            1 	(obj:28)
t_x_1834                                            1 	(obj:8)
t_x_1835                                            1 	(obj:0)
t_x_1840                                            1 	(obj:22)
t_x_1841                                            1 	(obj:23)
t_x_1844                                            1 	(obj:3)
t_x_1847                                            1 	(obj:22)
t_x_1852                                            1 	(obj:34)
t_x_1854                                            1 	(obj:30)
t_x_1856                                            1 	(obj:26)
t_x_1857                                            1 	(obj:74)
t_x_1858                                            1 	(obj:6)
t_x_1859                                            1 	(obj:34)
t_x_1860                                            1 	(obj:0)
t_x_1861                                            1 	(obj:15)
t_x_1862                                            1 	(obj:60)
t_x_1867                                            1 	(obj:1)
t_x_1868                                            1 	(obj:33)
t_x_1873                                            1 	(obj:13)
t_x_1875                                            1 	(obj:2)
t_x_1876                                            1 	(obj:18)
t_x_1878                                            1 	(obj:2)
t_x_1881                                            1 	(obj:19)
t_x_1882                                            1 	(obj:32)
t_x_1887                                            1 	(obj:17)
t_x_1891                                            1 	(obj:11)
t_x_1892                                            1 	(obj:1)
t_x_1898                                            1 	(obj:26)
t_x_1901                                            1 	(obj:6)
t_x_1906                                            1 	(obj:27)
t_x_1907                                            1 	(obj:39)
t_x_1911                                            1 	(obj:23)
t_x_1916                                            1 	(obj:5)
t_x_1919                                            1 	(obj:12)
t_x_1920                                            1 	(obj:0)
t_x_1929                                            1 	(obj:14)
t_x_1934                                            1 	(obj:4)
t_x_1942                                            1 	(obj:64)
t_x_1947                                            1 	(obj:18)
t_x_1949                                            1 	(obj:40)
t_x_1958                                            1 	(obj:23)
t_x_1960                                            1 	(obj:13)
t_x_1965                                            1 	(obj:45)
t_x_1970                                            1 	(obj:16)
t_x_1976                                            1 	(obj:14)
t_x_1985                                            1 	(obj:19)
t_x_1988                                            1 	(obj:9)
t_x_1992                                            1 	(obj:18)
t_x_1998                                            1 	(obj:13)
